RT is False
Default write of storage_offers_DA.csv just to have a file (but constraint should be inactive)
Reading model...
...model read.
creating competitive generators file...
...competitive generators recorded.
Loading data...
.. day-ahead data with real-time VRE data read.
Compiling instance...
...instance created.
Creating Offer Mitigation (model will solve as dispatch if TRUE)...
Solving...

Welcome to IBM(R) ILOG(R) CPLEX(R) Interactive Optimizer 12.9.0.0
  with Simplex, Mixed Integer & Barrier Optimizers
5725-A06 5725-A29 5724-Y48 5724-Y49 5724-Y54 5724-Y55 5655-Y21
Copyright IBM Corp. 1988, 2019.  All Rights Reserved.

Type 'help' for a list of available commands.
Type 'help' followed by a command name for more
information on commands.

CPLEX> Logfile 'cplex.log' closed.
Logfile 'C:\Users\llavin\Desktop\test919\logs\tmprh8dx5ce.cplex.log' open.
CPLEX> New value for parallel optimization mode: -1
CPLEX> New value for mixed integer optimality gap tolerance: 0.01
CPLEX> New value for integrality tolerance: 1e-09
CPLEX> New value for feasibility tolerance: 0.01
CPLEX> New value for deterministic time limit in ticks: 75000
CPLEX> Problem 'C:\Users\llavin\Desktop\test919\logs\tmpq2rbucwx.pyomo.lp' read.
Read time = 0.06 sec. (3.04 ticks)
CPLEX> Problem name         : C:\Users\llavin\Desktop\test919\logs\tmpq2rbucwx.pyomo.lp
Objective sense      : Minimize
Variables            :   26081  [Nneg: 1,  Box: 21616,  Free: 4464]
Objective nonzeros   :    2496
Linear constraints   :   27515  [Less: 14006,  Greater: 4416,  Equal: 9093]
  Nonzeros           :   89219
  RHS nonzeros       :   12271

Variables            : Min LB: -5000.000        Max UB: 1000000.       
Objective nonzeros   : Min   : 15.73158         Max   : 124.0997       
Linear constraints   :
  Nonzeros           : Min   : 0.8500000        Max   : 3000.000       
  RHS nonzeros       : Min   : 0.7833333        Max   : 5000.000       
CPLEX> CPXPARAM_Parallel                                -1
CPXPARAM_Simplex_Tolerances_Feasibility          0.01
CPXPARAM_DetTimeLimit                            75000
CPXPARAM_MIP_Tolerances_MIPGap                   0.01
CPXPARAM_MIP_Tolerances_Integrality              1.0000000000000001e-09
Parallel mode: opportunistic, using up to 32 threads for concurrent optimization.
Tried aggregator 1 time.
LP Presolve eliminated 21377 rows and 15487 columns.
Aggregator did 745 substitutions.
Reduced LP has 5393 rows, 9849 columns, and 31790 nonzeros.
Presolve time = 0.06 sec. (30.20 ticks)
Symmetry aggregator did 5563 additional substitutions.

Iteration log . . .
Iteration:     1   Dual objective     =             0.000000
Perturbation started.
Iteration:   101   Dual objective     =             0.000000
Iteration:   338   Dual objective     =             1.262346
Iteration:   613   Dual objective     =             1.963822
Iteration:   868   Dual objective     =             2.111626
Iteration:  1064   Dual objective     =             2.226705
Iteration:  1339   Dual objective     =             2.280394
Iteration:  1589   Dual objective     =             2.311021
Iteration:  1805   Dual objective     =        200632.642045
Iteration:  2024   Dual objective     =        488506.688728
Iteration:  2222   Dual objective     =        519968.885468
Iteration:  2414   Dual objective     =        524923.390967
Iteration:  2744   Dual objective     =        529825.905036
Removing perturbation.

Dual crossover.
  Dual:  Fixing 13 variables.
Using devex.

Primal simplex solved model.


Primal simplex - Optimal:  Objective =  5.2986757554e+05
Solution time =    0.20 sec.  Iterations = 1697 (1024)
Deterministic time = 82.83 ticks  (408.05 ticks/sec)

CPLEX> Solution written to file 'C:\Users\llavin\Desktop\test919\logs\tmpjr1c8hw4.cplex.sol'.
CPLEX> Exporting results... 
...storage offer mitigation file created
Converting model to MPEC...
...converted
NOTE: initial MIP solve with only storage competitive to get feasible solution
Solving...

Welcome to IBM(R) ILOG(R) CPLEX(R) Interactive Optimizer 12.9.0.0
  with Simplex, Mixed Integer & Barrier Optimizers
5725-A06 5725-A29 5724-Y48 5724-Y49 5724-Y54 5724-Y55 5655-Y21
Copyright IBM Corp. 1988, 2019.  All Rights Reserved.

Type 'help' for a list of available commands.
Type 'help' followed by a command name for more
information on commands.

CPLEX> Logfile 'cplex.log' closed.
Logfile 'C:\Users\llavin\Desktop\test919\logs\tmp9if6snlv.cplex.log' open.
CPLEX> New value for parallel optimization mode: -1
CPLEX> New value for mixed integer optimality gap tolerance: 0.01
CPLEX> New value for integrality tolerance: 1e-09
CPLEX> New value for feasibility tolerance: 0.01
CPLEX> New value for deterministic time limit in ticks: 75000
CPLEX> Problem 'C:\Users\llavin\Desktop\test919\logs\tmp9ivl0w2j.pyomo.lp' read.
Read time = 0.23 sec. (14.78 ticks)
CPLEX> Problem name         : C:\Users\llavin\Desktop\test919\logs\tmp9ivl0w2j.pyomo.lp
Objective sense      : Maximize
Variables            :   53805  [Nneg: 1,  Box: 22000,  Free: 4464,
                                 Binary: 27340]
Objective nonzeros   :    9029
Linear constraints   :  123205  [Less: 41346,  Greater: 59096,  Equal: 22763]
  Nonzeros           :  291753
  RHS nonzeros       :   67469

Variables            : Min LB: -5000.000        Max UB: 1000000.       
Objective nonzeros   : Min   : 0.7833333        Max   : 2500.000       
Linear constraints   :
  Nonzeros           : Min   : 0.7833333        Max   : 1000000.       
  RHS nonzeros       : Min   : 0.7833333        Max   : 1000000.       
CPLEX> CPXPARAM_Parallel                                -1
CPXPARAM_Simplex_Tolerances_Feasibility          0.01
CPXPARAM_DetTimeLimit                            75000
CPXPARAM_MIP_Tolerances_MIPGap                   0.01
CPXPARAM_MIP_Tolerances_Integrality              1.0000000000000001e-09
Tried aggregator 3 times.
MIP Presolve eliminated 88694 rows and 19018 columns.
MIP Presolve added 3359 rows and 0 columns.
MIP Presolve modified 24777 coefficients.
Aggregator did 12952 substitutions.
Reduced MIP has 24918 rows, 21279 columns, and 71061 nonzeros.
Reduced MIP has 8402 binaries, 0 generals, 0 SOSs, and 0 indicators.
Presolve time = 0.28 sec. (175.94 ticks)
Probing fixed 400 vars, tightened 2836 bounds.
Probing time = 1.20 sec. (888.58 ticks)
Tried aggregator 2 times.
MIP Presolve eliminated 905 rows and 800 columns.
MIP Presolve modified 2213 coefficients.
Aggregator did 45 substitutions.
Reduced MIP has 23968 rows, 20434 columns, and 68316 nonzeros.
Reduced MIP has 8002 binaries, 0 generals, 0 SOSs, and 0 indicators.
Presolve time = 0.09 sec. (66.44 ticks)
Probing time = 0.05 sec. (16.41 ticks)
Clique table members: 6361.
MIP emphasis: balance optimality and feasibility.
MIP search method: dynamic search.
Parallel mode: opportunistic, using up to 32 threads.
Root relaxation solution time = 0.48 sec. (353.50 ticks)

        Nodes                                         Cuts/
   Node  Left     Objective  IInf  Best Integer    Best Bound    ItCnt     Gap

      0     0     4290.1660  2004                   4290.1660     7591         
      0     0     4290.1064    25                    Cuts: 12     7602         
      0     0     4290.1064    23                    Cuts: 13     7612         
      0     0     4290.1064    26                     Cuts: 3     7619         
      0     0     4290.1064     9                 Flowcuts: 4     7626         
      0     0     4290.1064    12                     Cuts: 8     7632         
      0     8    infeasible                       Flowcuts: 6     7682         
Elapsed time = 8.72 sec. (5271.38 ticks, tree = 0.02 MB, solutions = 0)
    519   107   -35749.3192    14                   4286.1332    13017         
   1060   458     4241.7345     6                   4286.1332    23737         
   1636   587     4241.7345     2                   4286.1332    30684         
   2093  1169     3514.6859     4                   4286.1332    38110         
   2512  1360    infeasible                         4286.1332    41141         
*  2714+ 1292                         1348.7733     4286.1332           217.78%
   2965  1543    infeasible           1348.7733     4286.1332    45386  217.78%
   3177  1403        cutoff           1348.7733     4286.1332    49308  217.78%
   3378  1416        cutoff           4113.1085     4286.1332    49355    4.21%
   4218   823     4180.8932     2     4113.1085     4286.1332    50328    4.21%
Elapsed time = 21.80 sec. (8268.03 ticks, tree = 11.56 MB, solutions = 3)
*  4347   843      integral     0     4286.1332     4286.1332    49985    0.00%
   4767   851     4117.0011     4     4286.1332     4286.1332    50685    0.00%

Clique cuts applied:  1
Cover cuts applied:  2
Implied bound cuts applied:  1
Flow cuts applied:  12
Gomory fractional cuts applied:  7

Root node processing (before b&c):
  Real time             =    7.83 sec. (5266.58 ticks)
Parallel b&c, 32 threads:
  Real time             =   15.28 sec. (4523.60 ticks)
  Sync time (average)   =    0.59 sec.
  Wait time (average)   =    0.00 sec.
                          ------------
Total (root+branch&cut) =   23.11 sec. (9790.18 ticks)

Solution pool: 3 solutions saved.

MIP - Integer optimal solution:  Objective =  4.2861332420e+03
Solution time =   23.14 sec.  Iterations = 53325  Nodes = 4879
Deterministic time = 9790.33 ticks  (423.09 ticks/sec)

CPLEX> Incumbent solution written to file 'C:\Users\llavin\Desktop\test919\logs\tmp1vnyw036.cplex.sol'.
CPLEX> NOTE: no warmstart specified for MIP iteration, default behavior is true
NOTE: resolving with all competitive generators using storage-only solution to warmstart
Solving...

Welcome to IBM(R) ILOG(R) CPLEX(R) Interactive Optimizer 12.9.0.0
  with Simplex, Mixed Integer & Barrier Optimizers
5725-A06 5725-A29 5724-Y48 5724-Y49 5724-Y54 5724-Y55 5655-Y21
Copyright IBM Corp. 1988, 2019.  All Rights Reserved.

Type 'help' for a list of available commands.
Type 'help' followed by a command name for more
information on commands.

CPLEX> Logfile 'cplex.log' closed.
Logfile 'C:\Users\llavin\Desktop\test919\logs\tmpg3jv6r_a.cplex.log' open.
CPLEX> New value for parallel optimization mode: -1
CPLEX> New value for mixed integer optimality gap tolerance: 0.01
CPLEX> New value for integrality tolerance: 1e-09
CPLEX> New value for feasibility tolerance: 0.01
CPLEX> New value for deterministic time limit in ticks: 75000
CPLEX> Problem 'C:\Users\llavin\Desktop\test919\logs\tmpc5cizv5v.pyomo.lp' read.
Read time = 0.23 sec. (14.81 ticks)
CPLEX> MIP start file 'C:\Users\llavin\Desktop\test919\logs\tmp6qhsbk0o.cplex.mst' read.
CPLEX> Problem name         : C:\Users\llavin\Desktop\test919\logs\tmpc5cizv5v.pyomo.lp
Objective sense      : Maximize
Variables            :   54525  [Nneg: 1,  Box: 22720,  Free: 4464,
                                 Binary: 27340]
Objective nonzeros   :    9725
Linear constraints   :  123205  [Less: 41346,  Greater: 59096,  Equal: 22763]
  Nonzeros           :  291753
  RHS nonzeros       :   67469

Variables            : Min LB: -5000.000        Max UB: 1000000.       
Objective nonzeros   : Min   : 0.7833333        Max   : 2500.000       
Linear constraints   :
  Nonzeros           : Min   : 0.7833333        Max   : 1000000.       
  RHS nonzeros       : Min   : 0.7833333        Max   : 1000000.       
CPLEX> CPXPARAM_Parallel                                -1
CPXPARAM_Simplex_Tolerances_Feasibility          0.01
CPXPARAM_DetTimeLimit                            75000
CPXPARAM_MIP_Tolerances_MIPGap                   0.01
CPXPARAM_MIP_Tolerances_Integrality              1.0000000000000001e-09
Warning:  No solution found from 1 MIP starts.
Retaining values of one MIP start for possible repair.
Tried aggregator 3 times.
MIP Presolve eliminated 88694 rows and 19738 columns.
MIP Presolve added 3359 rows and 0 columns.
MIP Presolve modified 24777 coefficients.
Aggregator did 12952 substitutions.
Reduced MIP has 24918 rows, 21279 columns, and 71061 nonzeros.
Reduced MIP has 8402 binaries, 0 generals, 0 SOSs, and 0 indicators.
Presolve time = 0.30 sec. (176.31 ticks)
Probing fixed 400 vars, tightened 2836 bounds.
Probing time = 1.22 sec. (888.58 ticks)
Tried aggregator 2 times.
MIP Presolve eliminated 905 rows and 800 columns.
MIP Presolve modified 2213 coefficients.
Aggregator did 45 substitutions.
Reduced MIP has 23968 rows, 20434 columns, and 68316 nonzeros.
Reduced MIP has 8002 binaries, 0 generals, 0 SOSs, and 0 indicators.
Presolve time = 0.09 sec. (66.44 ticks)
Probing time = 0.03 sec. (16.41 ticks)
Clique table members: 6361.
MIP emphasis: balance optimality and feasibility.
MIP search method: dynamic search.
Parallel mode: opportunistic, using up to 32 threads.
Root relaxation solution time = 0.53 sec. (365.74 ticks)

        Nodes                                         Cuts/
   Node  Left     Objective  IInf  Best Integer    Best Bound    ItCnt     Gap

      0     0    43085.7476  2091                  43085.7476     7893         
      0     0    42886.6781   767                   Cuts: 927     8414         
      0     0    42802.7595   572                   Cuts: 711     8795         
      0     0    42763.6027   462                   Cuts: 360     8940         
      0     0    42761.1093   434                    Cuts: 89     8986         
      0     0    42757.7643   418                    Cuts: 74     9024         
      0     0    42756.8285   409                    Cuts: 42     9033         
      0     0    42756.8285   405                    Cuts: 39     9037         
      0     0    42756.8285   402                    Cuts: 31     9040         
Repair heuristic found nothing.
      0     7    40811.8646   389                    Cuts: 18     9076         
Elapsed time = 10.64 sec. (6248.01 ticks, tree = 0.02 MB, solutions = 0)
    399   180    39888.0601   350                  42453.5849    11178         
    834   346    39730.1338   338                  42453.5849    13587         
   1466   867    39236.5808   312                  42453.5849    19859         
   2240   901    35615.0679   287                  42453.5849    20031         
   2912  1345    40792.6912   291                  42453.5849    26499         
   3488  1986    41040.9367   346                  42453.5849    31706         
   4023  2447    38248.3604   298                  42453.5849    35730         
   4563  3889    38896.9423   295                  42453.5849    47688         
   5072  4060    25525.0212   257                  42453.5849    49426         
*  8147+ 6124                        27800.9054    42453.5849            52.71%
Elapsed time = 29.64 sec. (9341.69 ticks, tree = 49.77 MB, solutions = 1)
* 11999  6537      integral     0    40676.4279    42453.5849    61307    4.37%
  13397  1477        cutoff          40676.4279    41812.5605    74816    2.79%
  13456     3    42149.4377   131    40676.4279    41056.7379    74802    0.93%

Clique cuts applied:  7
Cover cuts applied:  18
Implied bound cuts applied:  41
Flow cuts applied:  456
Mixed integer rounding cuts applied:  64
Gomory fractional cuts applied:  70

Root node processing (before b&c):
  Real time             =    9.09 sec. (6232.48 ticks)
Parallel b&c, 32 threads:
  Real time             =   36.73 sec. (11311.63 ticks)
  Sync time (average)   =    3.05 sec.
  Wait time (average)   =    0.23 sec.
                          ------------
Total (root+branch&cut) =   45.83 sec. (17544.11 ticks)

Solution pool: 15 solutions saved.

MIP - Integer optimal, tolerance (0.01/1e-06):  Objective =  4.0676427852e+04
Current MIP best bound =  4.1056737944e+04 (gap = 380.31, 0.93%)
Solution time =   45.89 sec.  Iterations = 76556  Nodes = 13477 (15)
Deterministic time = 17544.27 ticks  (382.31 ticks/sec)

CPLEX> Incumbent solution written to file 'C:\Users\llavin\Desktop\test919\logs\tmpanlxysvr.cplex.sol'.
CPLEX> Exporting results... 
